SAT
-62 81 37 78 99 67 -28 -69 -24 12 54 18 49 -92 -94 -55 38 -5 1 -91 11 8 42 60 76 -57 -26 -70 -2 93 96 -31 73 95 85 87 100 -86 27 -66 72 -50 65 -52 58 -89 -46 21 -17 47 35 14 -68 77 -3 -39 74 -79 -97 -44 30 -40 22 29 -88 -80 98 61 16 10 -41 15 -7 33 13 -25 -23 -32 56 -90 63 -9 -36 -4 -83 -45 19 -43 75 82 34 48 -20 -6 59 51 -53 84 71 64 0
